1456
0	72	216	271	302	364	459	470	522	528
72	133	160	271	350	459	542	699	773	843
133	219	315	393	542	560	608	699	783	843
219	399	503	579	773	847	856	930	950	1016
0	227	321	364	448	522	570	633	669	847
321	374	430	437	481	669	756	950	1020	1065
0	29	374	549	608	642	679	883	959	1020
29	473	492	642	693	777	1096	1180	1279	1360
119	216	355	492	570	583	679	719	959	1114
349	530	756	785	991	1065	1150	1184	1279	1330
